[TITLE]
 8-node tutorial network with a pressure-reducing valve (PRV 10, junction 6 -> 9,
 setting 20 psi). Public EPANET tutorial topology; used to demonstrate the PRV model.

[JUNCTIONS]
 2   700.0
 3   710.0
 4   700.0
 5   650.0
 6   700.0
 7   700.0
 9   720.0
 10  720.0

[RESERVOIRS]
 1   700.0

[TANKS]
 8   830.0   10.0   0.0   20.0   60.0   0.0

[PIPES]
 1   3   2    3000.0   14.0   100.0   0.0
 2   3   7    5000.0   12.0   100.0   0.0
 3   3   4    5000.0    8.0   100.0   0.0
 4   4   6    5000.0    8.0   100.0   0.0
 5   6   7    5000.0    8.0   100.0   0.0
 7   4   5    5000.0    6.0   100.0   0.0
 8   5   6    7000.0    6.0   100.0   0.0
 6   7   8    7000.0   10.0   100.0   0.0
 11  9   10   1000.0   12.0   100.0   0.0

[PUMPS]
 9   1   2   HEAD 2

[VALVES]
 10   6   9   12.0   PRV   20.0   10.0

[DEMANDS]
 3   150.0   2
 4   150.0   2
 5   200.0   2
 6   150.0   2
 9   150.0   2
 10  200.0   2

[PATTERNS]
 1   0.8 0.8 0.7 0.6 0.6 0.5
 1   0.6 0.7 0.7 0.9 0.9 1.0
 2   1.0 0.8 0.7 0.6 0.6 0.5
 2   0.6 0.7 0.7 0.9 0.9 1.0

[CURVES]
 1   0.0    0.0
 1   300.0  35.94
 1   700.0  67.09
 1   1200.0 81.0
 1   1500.0 75.99
 1   2000.0 45.40
 1   2400.0 1.0
 2   1200.0 200.0

[CONTROLS]
 LINK 9 0.0 AT CLOCKTIME 0:00:00
 LINK 9 1.0 AT CLOCKTIME 1:00:00
 LINK 9 0.0 AT CLOCKTIME 2:00:00
 LINK 9 1.0 AT CLOCKTIME 3:00:00
 LINK 9 0.0 AT CLOCKTIME 4:00:00
 LINK 9 1.0 AT CLOCKTIME 7:00:00
 LINK 9 0.0 AT CLOCKTIME 9:00:00

[TIMES]
 DURATION            11:00:00
 HYDRAULIC TIMESTEP  1:00:00
 PATTERN TIMESTEP    1:00:00
 START CLOCKTIME     0:00:00

[OPTIONS]
 UNITS      GPM
 PRESSURE   PSI
 HEADLOSS   H-W
 UNBALANCED CONTINUE 10
 TRIALS     40
 ACCURACY   0.001

[COORDINATES]
 2  2212 7492
 3  3185 7492
 4  3215 6715
 5  3254 5909
 6  4424 6735
 7  4385 7512
 9  6007 6755
 10 6892 6794
 1  1307 7522
 8  6853 7522

[END]
